Tried aggregator 2 times.
MIP Presolve eliminated 71 rows and 396 columns.
MIP Presolve modified 171 coefficients.
Aggregator did 248 substitutions.
Reduced MIP has 521 rows, 435 columns, and 1216 nonzeros.
Reduced MIP has 299 binaries, 15 generals, 0 SOSs, and 160 indicators.
Presolve time = 0.01 sec. (2.38 ticks)
Found incumbent of value 34.000000 after 0.01 sec. (3.24 ticks)
Probing fixed 15 vars, tightened 103 bounds.
Probing changed sense of 120 constraints.
Probing time = 0.02 sec. (7.88 ticks)
Tried aggregator 3 times.
MIP Presolve eliminated 96 rows and 81 columns.
MIP Presolve modified 204 coefficients.
Aggregator did 141 substitutions.
Reduced MIP has 284 rows, 213 columns, and 764 nonzeros.
Reduced MIP has 131 binaries, 82 generals, 0 SOSs, and 150 indicators.
Presolve time = 0.00 sec. (1.55 ticks)
Probing time = 0.00 sec. (1.62 ticks)
Tried aggregator 1 time.
Reduced MIP has 284 rows, 213 columns, and 764 nonzeros.
Reduced MIP has 131 binaries, 82 generals, 0 SOSs, and 150 indicators.
Presolve time = 0.00 sec. (0.37 ticks)
Probing time = 0.00 sec. (1.60 ticks)
Clique table members: 530.
MIP emphasis: balance optimality and feasibility.
MIP search method: dynamic search.
Parallel mode: deterministic, using up to 4 threads.
Root relaxation solution time = 0.00 sec. (0.71 ticks)

        Nodes                                         Cuts/
   Node  Left     Objective  IInf  Best Integer    Best Bound    ItCnt     Gap

*     0+    0                           34.0000       29.0000       58   14.71%
      0     0       29.0000    39       34.0000       29.0000       58   14.71%
      0     0       29.0000    11       34.0000      Fract: 1       61   14.71%
      0     0       29.0000     2       34.0000      Cuts: 23       74   14.71%
*     0+    0                           29.0000       29.0000       74    0.00%
      0     0        cutoff             29.0000       29.0000       74    0.00%
Elapsed time = 0.08 sec. (26.43 ticks, tree = 0.00 MB, solutions = 2)

Clique cuts applied:  8
Cover cuts applied:  9
Implied bound cuts applied:  1
Gomory fractional cuts applied:  4

Root node processing (before b&c):
  Real time             =    0.08 sec. (26.46 ticks)
Parallel b&c, 4 threads:
  Real time             =    0.00 sec. (0.00 ticks)
  Sync time (average)   =    0.00 sec.
  Wait time (average)   =    0.00 sec.
                          ------------
Total (root+branch&cut) =    0.08 sec. (26.46 ticks)
